NAME : cgl_73.6223.tour
COMMENT : Length = 6223
COMMENT : Found by LKH-3 [Keld Helsgaun] Fri Nov  8 17:38:21 2024
TYPE : TOUR
DIMENSION : 74
TOUR_SECTION
10
11
9
12
1
25
24
72
26
73
29
27
28
57
56
55
49
52
51
50
47
48
54
53
39
35
58
34
33
37
32
38
36
43
40
41
46
44
45
42
30
31
59
62
63
66
67
65
64
60
61
68
69
70
71
23
74
21
22
3
6
4
7
8
2
5
16
17
20
18
19
15
14
13
-1
EOF
